50
    1    84    74
    2    57    47
    3    81    71
    4    93    83
    5    71    61
    6    35    25
    7    68    58
    8    19     9
    9    45    35
   10    24    14
   11   102    92
   12   108    98
   13    70    60
   14    44    34
   15    80    70
   16    14     4
   17    94    84
   18   105    95
   19    99    89
   20    53    43
   21    16     6
   22   110   100
   23    76    66
   24    42    32
   25    29    19
   26    22    12
   27    49    39
   28    45    35
   29    93    83
   30    46    36
   31    37    27
   32    19     9
   33   106    96
   34    45    35
   35    21    11
   36   109    99
   37    38    28
   38    37    27
   39    43    33
   40    76    66
   41    86    76
   42    64    54
   43    64    54
   44    90    80
   45    89    79
   46    87    77
   47    99    89
   48    39    29
   49    17     7
   50    80    70
1310
